105
0 6 13 17 16 8 2 1 4 3 
12 18 15 14 11 9 10 5 21 20 
24 26 29 32 38 37 35 40 42 31 
46 47 53 52 57 58 60 64 66 68 
69 103 99 100 76 97 101 89 83 80 
82 79 86 78 73 59 93 92 91 90 
88 71 81 84 77 87 74 85 102 98 
95 75 104 94 96 72 65 67 63 70 
56 55 62 61 49 51 54 50 48 44 
45 41 43 39 36 34 30 33 28 27 
22 25 23 19 7 
